# Solution for model F-JSSP-SDST
# Objective value = 177
B0(23) 0
B1(27) 1
B2(23) 0
B3(23) 0
B4(25) 0
B5(25) 0
B6(25) 0
B7(35) 0
B8(27) 0
B9(25) 1
B10(35) 0
B11(23) 0
B12(23) 0
B13(27) 0
B14(25) 0
B15(25) 0
B16(25) 0
B17(23) 0
B18(23) 1
B19(35) 0
B20(23) 0
B21(25) 0
B22(27) 0
B23(31) 0
B24(25) 1
B25(35) 0
B26(25) 0
B27(31) 0
B28(23) 0
B29(23) 1
B30(23) 0
B31(35) 0
B32(23) 1
B33(31) 0
B34(25) 0
B35(23) 0
B36(23) 0
B37(25) 0
B38(31) 0
B39(23) 1
B40(23) 0
B41(35) 0
B42(27) 0
B43(23) 1
B44(25) 0
B45(25) 0
B46(27) 1
B47(35) 0
B48(25) 0
B49(35) 1
B50(31) 0
B51(23) 0
B52(27) 0
B53(25) 0
B54(23) 0
B55(31) 0
B56(23) 0
B57(35) 0
B58(25) 1
B59(25) 0
B60(31) 0
B61(27) 0
B62(35) 0
B63(23) 0
B64(23) 0
B65(23) 0
B66(25) 1
B67(25) 0
B68(27) 0
B69(35) 0
B70(23) 0
B71(23) 1
B72(23) 0
B73(25) 0
B74(23) 0
B75(25) 0
B76(31) 0
B77(23) 0
B78(25) 0
B79(23) 0
B80(23) 0
B81(31) 0
B82(35) 1
B83(25) 0
B84(35) 0
B85(23) 0
B86(31) 0
B87(25) 1
B88(25) 0
B89(27) 0
B90(25) 0
B91(23) 0
B92(35) 0
B93(27) 0
B94(23) 0
B95(25) 0
B96(25) 0
B97(23) 0
B98(31) 1
B99(23) 0
B100(27) 0
B101(25) 0
B102(23) 0
B103(31) 0
B104(23) 1
B105(35) 0
B106(25) 0
B107(25) 0
B108(25) 0
B109(23) 0
B110(35) 0
B111(23) 0
B112(31) 0
B113(25) 1
B114(23) 0
B115(23) 0
B116(35) 0
B117(31) 0
B118(23) 1
B119(25) 0
B120(27) 0
B121(23) 0
B122(25) 0
B123(31) 1
B124(23) 0
B125(2) 0
B126(2) 0
B127(2) 0
B128(2) 0
B129(2) 0
B130(2) 0
B131(2) 0
B132(2) 0
B133(2) 0
B134(2) 0
B135(2) 0
B136(2) 0
B137(2) 0
B138(2) 0
B139(2) 0
B140(2) 0
B141(2) 0
B142(2) 0
B143(2) 0
B144(2) 0
B145(2) 0
B146(2) 0
B147(2) 0
B148(2) 0
B149(2) 0
B150(2) 0
B151(2) 0
B152(2) 0
B153(2) 0
B154(2) 0
B155(2) 0
B156(2) 0
B157(2) 0
B158(2) 0
B159(2) 0
B160(2) 1
B161(2) 0
B162(2) 0
B163(2) 0
B164(2) 0
B165(2) 0
B166(2) 0
B167(2) 0
B168(2) 0
B169(2) 0
B170(2) 0
B171(2) 0
B172(2) 0
B173(2) 0
B174(2) 0
B175(2) 0
B176(2) 0
B177(2) 0
B178(2) 0
B179(2) 0
B180(2) 0
B181(2) 0
B182(2) 0
B183(2) 0
B184(2) 0
B185(2) 0
B186(2) 0
B187(2) 0
B188(2) 0
B189(2) 0
B190(2) 0
B191(2) 0
B192(2) 0
B193(2) 0
B194(2) 0
B195(2) 0
B196(2) 0
B197(2) 0
B198(2) 0
B199(2) 0
B200(2) 0
B201(2) 1
B202(2) 0
B203(2) 0
B204(2) 0
B205(2) 0
B206(2) 0
B207(2) 0
B208(2) 0
B209(2) 0
B210(2) 0
B211(2) 0
B212(2) 0
B213(2) 0
B214(2) 0
B215(2) 0
B216(2) 0
B217(2) 0
B218(2) 0
B219(2) 0
B220(2) 0
B221(2) 0
B222(2) 1
B223(2) 0
B224(2) 0
B225(2) 0
B226(2) 0
B227(2) 0
B228(2) 0
B229(2) 0
B230(2) 0
B231(2) 0
B232(2) 1
B233(2) 0
B234(2) 0
B235(2) 0
B236(2) 0
B237(2) 0
B238(2) 0
B239(2) 0
B240(2) 0
B241(2) 0
B242(2) 0
B243(2) 0
B244(2) 0
B245(2) 0
B246(2) 0
B247(2) 0
B248(2) 0
B249(2) 0
B250(2) 0
B251(2) 0
B252(2) 0
B253(2) 0
B254(2) 0
B255(2) 0
B256(2) 0
B257(2) 0
B258(2) 0
B259(2) 0
B260(2) 0
B261(2) 0
B262(2) 0
B263(2) 0
B264(2) 0
B265(2) 0
B266(2) 0
B267(2) 0
B268(2) 0
B269(2) 0
B270(2) 0
B271(2) 0
B272(2) 0
B273(2) 0
B274(2) 0
B275(2) 0
B276(2) 0
B277(2) 0
B278(2) 0
B279(2) 0
B280(2) 0
B281(2) 0
B282(2) 0
B283(2) 0
B284(2) 0
B285(2) 0
B286(2) 0
B287(2) 0
B288(2) 0
B289(2) 0
B290(2) 0
B291(2) 0
B292(2) 0
B293(2) 0
B294(2) 0
B295(2) 0
B296(2) 0
B297(2) 0
B298(2) 0
B299(2) 0
B300(2) 0
B301(2) 0
B302(2) 0
B303(2) 0
B304(2) 0
B305(2) 0
B306(2) 0
B307(2) 0
B308(2) 0
B309(2) 0
B310(2) 0
B311(2) 0
B312(2) 0
B313(2) 1
B314(2) 0
B315(2) 0
B316(2) 0
B317(2) 0
B318(2) 0
B319(2) 0
B320(2) 0
B321(2) 0
B322(2) 0
B323(2) 0
B324(2) 0
B325(2) 0
B326(2) 0
B327(2) 0
B328(2) 0
B329(2) 0
B330(2) 0
B331(2) 0
B332(2) 0
B333(2) 0
B334(2) 0
B335(2) 0
B336(2) 1
B337(2) 0
B338(2) 0
B339(2) 0
B340(2) 0
B341(2) 0
B342(2) 0
B343(2) 1
B344(2) 0
B345(2) 0
B346(2) 0
B347(2) 0
B348(2) 0
B349(2) 0
B350(2) 0
B351(2) 0
B352(2) 0
B353(2) 0
B354(2) 0
B355(2) 0
B356(2) 0
B357(2) 0
B358(2) 0
B359(2) 0
B360(2) 0
B361(2) 0
B362(2) 0
B363(2) 0
B364(2) 0
B365(2) 0
B366(2) 0
B367(2) 0
B368(2) 0
B369(2) 0
B370(2) 0
B371(2) 0
B372(2) 0
B373(2) 0
B374(2) 0
B375(2) 0
B376(2) 0
B377(2) 0
B378(2) 0
B379(2) 0
B380(2) 0
B381(2) 0
B382(2) 0
B383(2) 0
B384(2) 0
B385(2) 0
B386(2) 1
B387(2) 0
B388(2) 0
B389(2) 0
B390(2) 0
B391(2) 0
B392(2) 1
B393(2) 0
B394(2) 0
B395(2) 0
B396(2) 0
B397(2) 0
B398(2) 0
B399(2) 0
B400(2) 0
B401(2) 1
B402(2) 0
B403(2) 0
B404(2) 0
B405(2) 0
B406(2) 0
B407(2) 1
B408(2) 0
B409(2) 0
B410(2) 0
B411(2) 0
B412(2) 0
B413(2) 0
B414(2) 0
B415(2) 0
B416(2) 0
B417(2) 0
B418(2) 0
B419(2) 0
B420(2) 0
B421(2) 0
B422(2) 0
B423(2) 0
B424(2) 0
B425(2) 0
B426(2) 0
B427(2) 0
B428(2) 0
B429(2) 0
B430(2) 0
B431(2) 1
B432(2) 0
B433(2) 0
B434(2) 0
B435(2) 0
B436(2) 0
B437(2) 0
B438(2) 0
B439(2) 0
B440(2) 0
B441(2) 0
B442(2) 0
B443(2) 0
B444(2) 0
B445(2) 0
B446(2) 0
B447(2) 0
B448(2) 0
B449(2) 0
B450(2) 0
B451(2) 0
B452(2) 0
B453(2) 0
B454(2) 0
B455(2) 0
B456(2) 0
B457(2) 0
B458(2) 0
B459(2) 0
B460(2) 0
B461(2) 0
B462(2) 0
B463(2) 0
B464(2) 0
B465(2) 0
B466(2) 0
B467(2) 0
B468(2) 0
B469(2) 0
B470(2) 0
B471(2) 0
B472(2) 0
B473(2) 0
B474(2) 0
B475(2) 0
B476(2) 0
B477(2) 0
B478(2) 0
B479(2) 0
B480(2) 0
B481(2) 0
B482(2) 0
B483(2) 0
B484(2) 0
B485(2) 0
B486(2) 0
B487(2) 0
B488(2) 0
B489(2) 1
B490(2) 0
B491(2) 0
B492(2) 0
B493(2) 0
B494(2) 0
B495(2) 0
B496(2) 0
B497(2) 0
B498(2) 0
B499(2) 0
B500(2) 0
B501(2) 0
B502(2) 0
B503(2) 0
B504(2) 0
B505(2) 0
B506(2) 0
B507(2) 0
B508(2) 0
B509(2) 0
B510(2) 0
B511(2) 0
B512(2) 0
B513(2) 0
B514(2) 0
B515(2) 0
B516(2) 0
B517(2) 0
B518(2) 0
B519(2) 0
B520(2) 0
B521(2) 0
B522(2) 0
B523(2) 0
B524(2) 0
B525(2) 0
B526(2) 0
B527(2) 0
B528(2) 0
B529(2) 0
B530(2) 0
B531(2) 0
B532(2) 0
B533(2) 0
B534(2) 0
B535(2) 0
B536(2) 0
B537(2) 0
B538(2) 0
B539(2) 0
B540(2) 0
B541(2) 0
B542(2) 0
B543(2) 0
B544(2) 0
B545(2) 0
B546(2) 0
B547(2) 0
B548(2) 0
B549(2) 0
B550(2) 0
B551(2) 0
B552(2) 0
B553(2) 0
B554(2) 0
B555(2) 0
B556(2) 0
B557(2) 0
B558(2) 0
B559(2) 0
B560(2) 0
B561(2) 0
B562(2) 0
B563(2) 0
B564(2) 0
B565(2) 0
B566(2) 0
B567(2) 0
B568(2) 0
B569(2) 0
B570(2) 0
B571(2) 0
B572(2) 0
B573(2) 0
B574(2) 0
B575(2) 0
B576(2) 0
B577(2) 0
B578(2) 0
B579(2) 0
B580(2) 0
B581(2) 0
B582(2) 0
B583(2) 1
B584(2) 0
B585(2) 0
B586(2) 0
B587(2) 0
B588(2) 0
B589(2) 0
B590(2) 0
B591(2) 0
B592(2) 0
B593(2) 0
B594(2) 0
B595(2) 0
B596(2) 0
B597(2) 0
B598(2) 0
B599(2) 0
B600(2) 0
B601(2) 0
B602(2) 0
B603(2) 0
B604(2) 0
B605(2) 0
B606(2) 0
B607(2) 0
B608(2) 1
B609(2) 0
B610(2) 0
B611(2) 0
B612(2) 0
B613(2) 0
B614(2) 0
B615(2) 0
B616(2) 0
B617(2) 0
B618(2) 0
B619(2) 0
B620(2) 0
B621(2) 0
B622(2) 0
B623(2) 0
B624(2) 0
B625(2) 0
B626(2) 0
B627(2) 0
B628(2) 0
B629(2) 0
B630(2) 0
B631(2) 0
B632(2) 0
B633(2) 0
B634(2) 0
B635(2) 0
B636(2) 0
B637(2) 0
B638(2) 0
B639(2) 0
B640(2) 0
B641(2) 0
B642(2) 0
B643(2) 0
B644(2) 0
B645(2) 0
B646(2) 0
B647(2) 0
B648(2) 0
B649(2) 0
B650(2) 0
B651(2) 0
B652(2) 0
B653(2) 1
B654(2) 0
B655(2) 0
B656(2) 0
B657(2) 0
B658(2) 0
B659(2) 0
B660(2) 0
B661(2) 1
B662(2) 0
B663(2) 0
B664(2) 0
B665(2) 0
B666(2) 0
B667(2) 0
B668(2) 0
B669(2) 0
B670(2) 0
B671(2) 0
B672(2) 0
B673(2) 0
B674(2) 0
B675(2) 0
B676(2) 0
B677(2) 0
B678(2) 0
B679(2) 0
B680(2) 0
B681(2) 0
B682(2) 0
B683(2) 0
B684(2) 0
B685(2) 0
B686(2) 0
B687(2) 0
B688(2) 0
B689(2) 0
B690(2) 0
B691(2) 0
B692(2) 0
B693(2) 0
B694(2) 0
B695(2) 0
B696(2) 0
B697(2) 1
B698(2) 0
B699(2) 0
B700(2) 0
B701(2) 0
B702(2) 0
B703(2) 0
B704(2) 1
B705(2) 0
B706(2) 0
B707(2) 0
B708(2) 0
B709(2) 0
B710(2) 0
B711(2) 0
B712(2) 0
B713(2) 0
B714(2) 0
B715(2) 0
B716(2) 0
B717(2) 0
B718(2) 0
B719(2) 0
B720(2) 0
B721(2) 0
B722(2) 0
B723(2) 0
B724(2) 0
B725(2) 0
B726(2) 0
B727(2) 0
B728(2) 0
B729(2) 0
B730(2) 0
B731(2) 0
B732(2) 0
B733(2) 0
B734(2) 0
B735(2) 0
B736(2) 0
B737(2) 0
B738(2) 0
B739(2) 0
B740(2) 0
B741(2) 0
B742(2) 0
B743(2) 0
B744(2) 0
B745(2) 0
B746(2) 0
B747(2) 1
B748(2) 0
B749(2) 0
B750(2) 0
B751(2) 0
B752(2) 0
B753(2) 0
B754(2) 0
B755(2) 0
B756(2) 0
B757(2) 0
B758(2) 0
B759(2) 0
B760(2) 0
B761(2) 0
B762(2) 0
B763(2) 0
B764(2) 0
B765(2) 0
B766(2) 0
B767(2) 0
B768(2) 0
B769(2) 0
B770(2) 0
B771(2) 0
B772(2) 0
B773(2) 0
B774(2) 0
B775(2) 0
B776(2) 0
B777(2) 0
B778(2) 0
B779(2) 0
B780(2) 0
B781(2) 0
B782(2) 0
B783(2) 0
B784(2) 0
B785(2) 0
B786(2) 0
B787(2) 1
B788(2) 0
B789(2) 0
B790(2) 0
B791(2) 0
B792(2) 0
B793(2) 0
B794(2) 0
B795(2) 0
B796(2) 0
B797(2) 0
B798(2) 0
B799(2) 0
B800(2) 0
B801(2) 0
B802(2) 0
B803(2) 0
B804(2) 0
B805(2) 0
B806(2) 0
B807(2) 1
B808(2) 0
B809(2) 0
B810(2) 0
B811(2) 0
B812(2) 0
B813(2) 0
B814(2) 0
B815(2) 0
B816(2) 0
B817(2) 0
B818(2) 0
B819(2) 0
B820(2) 0
B821(2) 0
B822(2) 0
B823(2) 0
B824(2) 0
B825(2) 1
B826(2) 0
B827(2) 0
B828(2) 0
B829(2) 0
B830(2) 0
B831(2) 0
B832(2) 0
B833(2) 0
B834(2) 0
B835(2) 0
B836(2) 0
B837(2) 0
B838(2) 0
B839(2) 0
B840(2) 0
B841(2) 0
B842(2) 0
B843(2) 0
B844(2) 0
B845(2) 1
B846(2) 0
B847(2) 0
B848(2) 0
B849(2) 0
B850(2) 0
B851(2) 0
B852(2) 0
B853(2) 0
B854(2) 0
B855(2) 0
B856(2) 0
B857(2) 0
B858(2) 0
B859(2) 0
B860(2) 0
B861(2) 0
I862(23) 0
I863(27) 0
I864(23) 0
I865(23) 0
I866(25) 0
I867(25) 0
I868(25) 0
I869(35) 0
I870(27) 0
I871(25) 6
I872(35) 0
I873(23) 0
I874(23) 0
I875(27) 0
I876(25) 0
I877(25) 0
I878(25) 0
I879(23) 0
I880(23) 7
I881(35) 0
I882(23) 0
I883(25) 0
I884(27) 0
I885(31) 0
I886(25) 0
I887(35) 0
I888(25) 0
I889(31) 0
I890(23) 0
I891(23) 11
I892(23) 0
I893(35) 0
I894(23) 0
I895(31) 0
I896(25) 0
I897(23) 0
I898(23) 0
I899(25) 0
I900(31) 0
I901(23) 0
I902(23) 0
I903(35) 0
I904(27) 0
I905(23) 0
I906(25) 0
I907(25) 0
I908(27) 7
I909(35) 0
I910(25) 0
I911(35) 11
I912(31) 0
I913(23) 0
I914(27) 0
I915(25) 0
I916(23) 0
I917(31) 0
I918(23) 0
I919(35) 0
I920(25) 1
I921(25) 0
I922(31) 0
I923(27) 0
I924(35) 0
I925(23) 0
I926(23) 0
I927(23) 0
I928(25) 0
I929(25) 0
I930(27) 0
I931(35) 0
I932(23) 0
I933(23) 5
I934(23) 0
I935(25) 0
I936(23) 0
I937(25) 0
I938(31) 0
I939(23) 0
I940(25) 0
I941(23) 0
I942(23) 0
I943(31) 0
I944(35) 0
I945(25) 0
I946(35) 0
I947(23) 0
I948(31) 0
I949(25) 0
I950(25) 0
I951(27) 0
I952(25) 0
I953(23) 0
I954(35) 0
I955(27) 0
I956(23) 0
I957(25) 0
I958(25) 0
I959(23) 0
I960(31) 0
I961(23) 0
I962(27) 0
I963(25) 0
I964(23) 0
I965(31) 0
I966(23) 9
I967(35) 0
I968(25) 0
I969(25) 0
I970(25) 0
I971(23) 0
I972(35) 0
I973(23) 0
I974(31) 0
I975(25) 10
I976(23) 0
I977(23) 0
I978(35) 0
I979(31) 0
I980(23) 0
I981(25) 0
I982(27) 0
I983(23) 0
I984(25) 0
I985(31) 5
I986(23) 0
I987(1) 177
